\ This file has been generated by DOcplex
\ ENCODING=ISO-8859-1
\Problem name: MCLP7_mul_c_4x4-2

Minimize
 obj: - 91 y_0 - 91 y_1 - 93 y_2 - 92 y_3 - 91 y_4 - 91 y_5 - 92 y_6 - 91 y_7
      - 90 y_8 - 91 y_9 - 93 y_10 - 92 y_11 - 90 y_12 - 89 y_13 - 89 y_14
      - 92 y_15 - 470 x_0 - 564 x_7 - 470 x_12 + 94 c1a_0_int_slack_0
      + 94 c1a_1_int_slack_0 + 94 c1a_3_int_slack_0 + 94 c1a_4_int_slack_0
      + 94 c1a_6_int_slack_0 + 94 c1a_7_int_slack_0 + 94 c1a_8_int_slack_0
      + 94 c1a_11_int_slack_0 + 94 c1a_12_int_slack_0 + 94 c1a_13_int_slack_0 +
      [ 94 y_0^2 + 188 y_0*x_0 - 188 y_0*c1a_0_int_slack_0 + 94 y_1^2
      + 188 y_1*x_0 - 188 y_1*c1a_1_int_slack_0 + 94 y_2^2 + 94 y_3^2
      + 188 y_3*x_7 - 188 y_3*c1a_3_int_slack_0 + 94 y_4^2 + 188 y_4*x_0
      - 188 y_4*c1a_4_int_slack_0 + 94 y_5^2 + 94 y_6^2 + 188 y_6*x_7
      - 188 y_6*c1a_6_int_slack_0 + 94 y_7^2 + 188 y_7*x_7
      - 188 y_7*c1a_7_int_slack_0 + 94 y_8^2 + 188 y_8*x_12
      - 188 y_8*c1a_8_int_slack_0 + 94 y_9^2 + 94 y_10^2 + 94 y_11^2
      + 188 y_11*x_7 - 188 y_11*c1a_11_int_slack_0 + 94 y_12^2 + 188 y_12*x_12
      - 188 y_12*c1a_12_int_slack_0 + 94 y_13^2 + 188 y_13*x_12
      - 188 y_13*c1a_13_int_slack_0 + 94 y_14^2 + 94 y_15^2 + 376 x_0^2
      + 188 x_0*x_7 + 188 x_0*x_12 - 188 x_0*c1a_0_int_slack_0
      - 188 x_0*c1a_1_int_slack_0 - 188 x_0*c1a_4_int_slack_0 + 470 x_7^2
      + 188 x_7*x_12 - 188 x_7*c1a_3_int_slack_0 - 188 x_7*c1a_6_int_slack_0
      - 188 x_7*c1a_7_int_slack_0 - 188 x_7*c1a_11_int_slack_0 + 376 x_12^2
      - 188 x_12*c1a_8_int_slack_0 - 188 x_12*c1a_12_int_slack_0
      - 188 x_12*c1a_13_int_slack_0 + 94 c1a_0_int_slack_0^2
      + 94 c1a_1_int_slack_0^2 + 94 c1a_3_int_slack_0^2 + 94 c1a_4_int_slack_0^2
      + 94 c1a_6_int_slack_0^2 + 94 c1a_7_int_slack_0^2 + 94 c1a_8_int_slack_0^2
      + 94 c1a_11_int_slack_0^2 + 94 c1a_12_int_slack_0^2
      + 94 c1a_13_int_slack_0^2 ]/2 + 940
Subject To

Bounds
 0 <= y_0 <= 1
 0 <= y_1 <= 1
 0 <= y_2 <= 1
 0 <= y_3 <= 1
 0 <= y_4 <= 1
 0 <= y_5 <= 1
 0 <= y_6 <= 1
 0 <= y_7 <= 1
 0 <= y_8 <= 1
 0 <= y_9 <= 1
 0 <= y_10 <= 1
 0 <= y_11 <= 1
 0 <= y_12 <= 1
 0 <= y_13 <= 1
 0 <= y_14 <= 1
 0 <= y_15 <= 1
 0 <= x_0 <= 1
 0 <= x_7 <= 1
 0 <= x_12 <= 1
 0 <= c1a_0_int_slack_0 <= 1
 0 <= c1a_1_int_slack_0 <= 1
 0 <= c1a_3_int_slack_0 <= 1
 0 <= c1a_4_int_slack_0 <= 1
 0 <= c1a_6_int_slack_0 <= 1
 0 <= c1a_7_int_slack_0 <= 1
 0 <= c1a_8_int_slack_0 <= 1
 0 <= c1a_11_int_slack_0 <= 1
 0 <= c1a_12_int_slack_0 <= 1
 0 <= c1a_13_int_slack_0 <= 1

Binaries
 y_0 y_1 y_2 y_3 y_4 y_5 y_6 y_7 y_8 y_9 y_10 y_11 y_12 y_13 y_14 y_15 x_0 x_7
 x_12 c1a_0_int_slack_0 c1a_1_int_slack_0 c1a_3_int_slack_0 c1a_4_int_slack_0
 c1a_6_int_slack_0 c1a_7_int_slack_0 c1a_8_int_slack_0 c1a_11_int_slack_0
 c1a_12_int_slack_0 c1a_13_int_slack_0
End
